c description: Random 5-CNF over 15 variables and 30 clauses
c generator: CNFgen (0.9.0)
c copyright: (C) 2012-2020 Massimo Lauria <massimo.lauria@uniroma1.it>
c url: https://massimolauria.net/cnfgen
c
p cnf 15 30
7 9 11 13 -14 0
-6 9 -10 13 -14 0
2 4 -6 -9 13 0
-3 7 -9 10 12 0
-3 -9 10 -13 14 0
-3 -4 5 9 -13 0
-2 -6 11 14 15 0
-2 3 -4 -5 12 0
3 -4 5 -9 -13 0
-1 -4 -7 -12 14 0
1 -2 4 8 -14 0
-4 5 6 -9 13 0
-3 -4 11 -13 -15 0
-3 5 6 7 -8 0
1 -4 5 -7 -11 0
1 2 5 -6 15 0
-1 -2 6 -7 -11 0
-2 -6 -11 -13 14 0
-4 -5 8 10 15 0
-1 2 -10 12 -14 0
-1 -2 -7 8 -10 0
-1 -3 -10 12 -14 0
5 6 -7 -8 11 0
1 2 -7 -9 -13 0
-3 -11 12 14 -15 0
-3 -5 -10 12 -15 0
-1 -4 11 14 15 0
-4 -5 10 12 -13 0
-3 -6 -8 -9 -14 0
-4 10 -11 13 -15 0